64
1 0 36
2 0 12
2 1 46
3 0 33
3 1 3
3 2 34
4 0 47
4 1 43
4 2 34
4 3 41
5 0 4
5 1 35
5 2 42
5 3 2
5 4 36
6 0 22
6 1 2
6 2 26
6 3 5
6 4 20
6 5 43
7 0 22
7 1 21
7 2 36
7 3 24
7 4 26
7 5 41
7 6 28
8 0 9
8 1 51
8 2 15
8 3 54
8 4 43
8 5 3
8 6 36
8 7 6
9 0 18
9 1 41
9 2 32
9 3 47
9 4 18
9 5 26
9 6 43
9 7 41
9 8 48
10 0 22
10 1 15
10 2 38
10 3 20
10 4 27
10 5 10
10 6 26
10 7 37
10 8 24
10 9 2
11 0 1
11 1 54
11 2 53
11 3 33
11 4 10
11 5 4
11 6 23
11 7 28
11 8 5
11 9 41
11 10 21
12 0 21
12 1 41
12 2 15
12 3 48
12 4 54
12 5 43
12 6 5
12 7 23
12 8 2
12 9 35
12 10 51
12 11 41
13 0 6
13 1 1
13 2 48
13 3 19
13 4 13
13 5 12
13 6 47
13 7 44
13 8 5
13 9 3
13 10 38
13 11 37
13 12 28
14 0 28
14 1 44
14 2 32
14 3 7
14 4 43
14 5 8
14 6 23
14 7 14
14 8 44
14 9 35
14 10 10
14 11 9
14 12 45
14 13 51
15 0 32
15 1 29
15 2 27
15 3 22
15 4 34
15 5 40
15 6 18
15 7 8
15 8 31
15 9 7
15 10 49
15 11 38
15 12 13
15 13 26
15 14 46
16 0 53
16 1 28
16 2 23
16 3 25
16 4 13
16 5 18
16 6 23
16 7 45
16 8 48
16 9 33
16 10 29
16 11 28
16 12 27
16 13 54
16 14 7
16 15 10
17 0 11
17 1 23
17 2 15
17 3 45
17 4 26
17 5 21
17 6 29
17 7 26
17 8 54
17 9 9
17 10 15
17 11 31
17 12 47
17 13 46
17 14 36
17 15 10
17 16 34
18 0 1
18 1 7
18 2 53
18 3 50
18 4 33
18 5 3
18 6 31
18 7 19
18 8 8
18 9 30
18 10 32
18 11 5
18 12 23
18 13 1
18 14 35
18 15 35
18 16 11
18 17 30
19 0 1
19 1 11
19 2 42
19 3 35
19 4 40
19 5 42
19 6 11
19 7 36
19 8 26
19 9 16
19 10 43
19 11 36
19 12 11
19 13 48
19 14 47
19 15 12
19 16 38
19 17 16
19 18 1
20 0 52
20 1 31
20 2 15
20 3 33
20 4 39
20 5 38
20 6 3
20 7 43
20 8 1
20 9 2
20 10 24
20 11 38
20 12 1
20 13 43
20 14 18
20 15 18
20 16 5
20 17 18
20 18 11
20 19 17
21 0 47
21 1 33
21 2 14
21 3 39
21 4 6
21 5 43
21 6 20
21 7 28
21 8 9
21 9 22
21 10 30
21 11 16
21 12 25
21 13 4
21 14 48
21 15 17
21 16 29
21 17 4
21 18 16
21 19 10
21 20 25
22 0 42
22 1 14
22 2 35
22 3 38
22 4 44
22 5 29
22 6 6
22 7 41
22 8 50
22 9 25
22 10 12
22 11 5
22 12 17
22 13 19
22 14 16
22 15 15
22 16 16
22 17 14
22 18 34
22 19 15
22 20 26
22 21 42
23 0 46
23 1 15
23 2 32
23 3 48
23 4 2
23 5 36
23 6 54
23 7 7
23 8 2
23 9 45
23 10 23
23 11 13
23 12 12
23 13 1
23 14 10
23 15 18
23 16 2
23 17 24
23 18 12
23 19 16
23 20 16
23 21 11
23 22 38
24 0 32
24 1 45
24 2 6
24 3 48
24 4 11
24 5 32
24 6 44
24 7 33
24 8 51
24 9 17
24 10 29
24 11 21
24 12 28
24 13 21
24 14 50
24 15 19
24 16 13
24 17 31
24 18 41
24 19 11
24 20 2
24 21 40
24 22 43
24 23 53
25 0 8
25 1 30
25 2 46
25 3 24
25 4 50
25 5 5
25 6 42
25 7 14
25 8 20
25 9 36
25 10 11
25 11 9
25 12 20
25 13 10
25 14 54
25 15 8
25 16 50
25 17 2
25 18 44
25 19 3
25 20 27
25 21 25
25 22 21
25 23 6
25 24 41
26 0 25
26 1 5
26 2 26
26 3 47
26 4 53
26 5 21
26 6 41
26 7 18
26 8 4
26 9 37
26 10 51
26 11 8
26 12 46
26 13 5
26 14 20
26 15 29
26 16 46
26 17 50
26 18 38
26 19 30
26 20 50
26 21 1
26 22 41
26 23 31
26 24 35
26 25 11
27 0 54
27 1 13
27 2 15
27 3 16
27 4 49
27 5 14
27 6 12
27 7 51
27 8 21
27 9 30
27 10 49
27 11 31
27 12 7
27 13 11
27 14 31
27 15 36
27 16 32
27 17 21
27 18 1
27 19 8
27 20 45
27 21 21
27 22 29
27 23 20
27 24 30
27 25 5
27 26 39
28 0 3
28 1 48
28 2 38
28 3 33
28 4 13
28 5 1
28 6 35
28 7 20
28 8 13
28 9 33
28 10 44
28 11 44
28 12 38
28 13 16
28 14 29
28 15 1
28 16 38
28 17 15
28 18 6
28 19 5
28 20 26
28 21 24
28 22 36
28 23 44
28 24 43
28 25 22
28 26 43
28 27 35
29 0 24
29 1 42
29 2 54
29 3 23
29 4 18
29 5 17
29 6 7
29 7 36
29 8 5
29 9 43
29 10 19
29 11 16
29 12 2
29 13 39
29 14 1
29 15 10
29 16 54
29 17 18
29 18 48
29 19 3
29 20 37
29 21 26
29 22 20
29 23 15
29 24 52
29 25 11
29 26 36
29 27 42
29 28 36
30 0 15
30 1 4
30 2 15
30 3 46
30 4 53
30 5 51
30 6 13
30 7 11
30 8 38
30 9 41
30 10 25
30 11 25
30 12 24
30 13 34
30 14 8
30 15 47
30 16 4
30 17 54
30 18 43
30 19 48
30 20 53
30 21 20
30 22 23
30 23 53
30 24 35
30 25 22
30 26 48
30 27 52
30 28 42
30 29 40
31 0 13
31 1 13
31 2 39
31 3 10
31 4 17
31 5 9
31 6 47
31 7 15
31 8 20
31 9 3
31 10 5
31 11 29
31 12 3
31 13 35
31 14 1
31 15 24
31 16 8
31 17 15
31 18 11
31 19 27
31 20 4
31 21 40
31 22 30
31 23 23
31 24 38
31 25 39
31 26 44
31 27 39
31 28 20
31 29 27
31 30 43
32 0 54
32 1 48
32 2 47
32 3 28
32 4 35
32 5 52
32 6 46
32 7 40
32 8 6
32 9 27
32 10 24
32 11 24
32 12 27
32 13 21
32 14 34
32 15 6
32 16 29
32 17 6
32 18 12
32 19 54
32 20 46
32 21 4
32 22 17
32 23 38
32 24 17
32 25 16
32 26 36
32 27 42
32 28 52
32 29 18
32 30 40
32 31 8
33 0 16
33 1 17
33 2 46
33 3 28
33 4 34
33 5 12
33 6 13
33 7 2
33 8 15
33 9 16
33 10 6
33 11 11
33 12 47
33 13 48
33 14 54
33 15 17
33 16 19
33 17 1
33 18 2
33 19 10
33 20 2
33 21 49
33 22 45
33 23 1
33 24 1
33 25 45
33 26 12
33 27 27
33 28 47
33 29 8
33 30 1
33 31 28
33 32 14
34 0 27
34 1 19
34 2 9
34 3 51
34 4 24
34 5 36
34 6 47
34 7 22
34 8 2
34 9 51
34 10 41
34 11 54
34 12 52
34 13 7
34 14 41
34 15 11
34 16 27
34 17 30
34 18 45
34 19 39
34 20 18
34 21 52
34 22 30
34 23 17
34 24 43
34 25 32
34 26 38
34 27 23
34 28 22
34 29 50
34 30 49
34 31 17
34 32 21
34 33 32
35 0 5
35 1 5
35 2 49
35 3 21
35 4 31
35 5 54
35 6 1
35 7 7
35 8 4
35 9 25
35 10 30
35 11 3
35 12 38
35 13 10
35 14 23
35 15 4
35 16 52
35 17 16
35 18 12
35 19 47
35 20 15
35 21 47
35 22 1
35 23 35
35 24 23
35 25 43
35 26 27
35 27 13
35 28 8
35 29 40
35 30 22
35 31 40
35 32 29
35 33 19
35 34 14
36 0 39
36 1 10
36 2 19
36 3 12
36 4 3
36 5 7
36 6 3
36 7 35
36 8 33
36 9 53
36 10 15
36 11 23
36 12 23
36 13 54
36 14 46
36 15 10
36 16 11
36 17 37
36 18 8
36 19 9
36 20 4
36 21 28
36 22 24
36 23 9
36 24 6
36 25 26
36 26 40
36 27 54
36 28 2
36 29 54
36 30 37
36 31 8
36 32 54
36 33 1
36 34 36
36 35 37
37 0 23
37 1 26
37 2 46
37 3 45
37 4 23
37 5 32
37 6 18
37 7 20
37 8 53
37 9 17
37 10 15
37 11 1
37 12 12
37 13 18
37 14 32
37 15 18
37 16 19
37 17 7
37 18 2
37 19 52
37 20 49
37 21 4
37 22 19
37 23 7
37 24 40
37 25 35
37 26 48
37 27 37
37 28 32
37 29 11
37 30 2
37 31 9
37 32 15
37 33 44
37 34 10
37 35 42
37 36 51
38 0 12
38 1 9
38 2 52
38 3 38
38 4 43
38 5 15
38 6 15
38 7 41
38 8 15
38 9 29
38 10 32
38 11 44
38 12 19
38 13 33
38 14 45
38 15 22
38 16 27
38 17 33
38 18 46
38 19 14
38 20 52
38 21 30
38 22 53
38 23 1
38 24 10
38 25 30
38 26 35
38 27 53
38 28 26
38 29 42
38 30 45
38 31 27
38 32 41
38 33 26
38 34 13
38 35 8
38 36 21
38 37 19
39 0 42
39 1 12
39 2 39
39 3 13
39 4 24
39 5 36
39 6 35
39 7 29
39 8 34
39 9 40
39 10 19
39 11 25
39 12 43
39 13 5
39 14 11
39 15 7
39 16 38
39 17 49
39 18 15
39 19 14
39 20 45
39 21 18
39 22 52
39 23 35
39 24 27
39 25 15
39 26 46
39 27 2
39 28 5
39 29 30
39 30 30
39 31 48
39 32 10
39 33 39
39 34 26
39 35 2
39 36 21
39 37 54
39 38 24
40 0 28
40 1 36
40 2 22
40 3 38
40 4 50
40 5 41
40 6 50
40 7 51
40 8 51
40 9 34
40 10 4
40 11 9
40 12 10
40 13 35
40 14 26
40 15 27
40 16 11
40 17 1
40 18 21
40 19 21
40 20 31
40 21 45
40 22 43
40 23 47
40 24 9
40 25 24
40 26 1
40 27 27
40 28 12
40 29 27
40 30 46
40 31 35
40 32 37
40 33 11
40 34 23
40 35 36
40 36 54
40 37 12
40 38 34
40 39 34
41 0 13
41 1 5
41 2 26
41 3 25
41 4 24
41 5 49
41 6 6
41 7 28
41 8 18
41 9 45
41 10 51
41 11 6
41 12 47
41 13 37
41 14 26
41 15 27
41 16 22
41 17 25
41 18 31
41 19 25
41 20 9
41 21 47
41 22 11
41 23 6
41 24 35
41 25 3
41 26 11
41 27 50
41 28 41
41 29 43
41 30 14
41 31 3
41 32 11
41 33 32
41 34 19
41 35 14
41 36 9
41 37 36
41 38 15
41 39 13
41 40 17
42 0 11
42 1 53
42 2 2
42 3 43
42 4 19
42 5 50
42 6 43
42 7 41
42 8 25
42 9 34
42 10 12
42 11 19
42 12 12
42 13 4
42 14 16
42 15 22
42 16 1
42 17 37
42 18 16
42 19 21
42 20 48
42 21 10
42 22 53
42 23 54
42 24 15
42 25 10
42 26 33
42 27 35
42 28 49
42 29 35
42 30 12
42 31 50
42 32 36
42 33 32
42 34 6
42 35 19
42 36 29
42 37 14
42 38 43
42 39 21
42 40 37
42 41 9
43 0 22
43 1 18
43 2 22
43 3 24
43 4 38
43 5 27
43 6 26
43 7 19
43 8 11
43 9 10
43 10 6
43 11 1
43 12 33
43 13 41
43 14 29
43 15 39
43 16 5
43 17 15
43 18 52
43 19 21
43 20 42
43 21 25
43 22 32
43 23 47
43 24 35
43 25 36
43 26 24
43 27 19
43 28 39
43 29 25
43 30 41
43 31 52
43 32 50
43 33 45
43 34 48
43 35 23
43 36 23
43 37 54
43 38 52
43 39 13
43 40 12
43 41 33
43 42 50
44 0 38
44 1 6
44 2 39
44 3 25
44 4 3
44 5 16
44 6 34
44 7 7
44 8 13
44 9 35
44 10 41
44 11 38
44 12 3
44 13 48
44 14 1
44 15 20
44 16 52
44 17 31
44 18 13
44 19 19
44 20 36
44 21 26
44 22 43
44 23 20
44 24 10
44 25 36
44 26 29
44 27 31
44 28 51
44 29 35
44 30 17
44 31 4
44 32 28
44 33 8
44 34 7
44 35 22
44 36 34
44 37 26
44 38 25
44 39 7
44 40 29
44 41 24
44 42 14
44 43 36
45 0 22
45 1 30
45 2 51
45 3 9
45 4 36
45 5 34
45 6 54
45 7 37
45 8 42
45 9 10
45 10 18
45 11 14
45 12 53
45 13 19
45 14 16
45 15 31
45 16 41
45 17 54
45 18 9
45 19 9
45 20 8
45 21 26
45 22 19
45 23 29
45 24 13
45 25 48
45 26 40
45 27 36
45 28 15
45 29 11
45 30 51
45 31 29
45 32 23
45 33 18
45 34 8
45 35 44
45 36 53
45 37 50
45 38 10
45 39 54
45 40 37
45 41 50
45 42 43
45 43 12
45 44 15
46 0 28
46 1 7
46 2 53
46 3 29
46 4 30
46 5 14
46 6 10
46 7 35
46 8 20
46 9 48
46 10 19
46 11 7
46 12 29
46 13 41
46 14 54
46 15 6
46 16 51
46 17 27
46 18 18
46 19 37
46 20 24
46 21 36
46 22 53
46 23 18
46 24 50
46 25 20
46 26 7
46 27 38
46 28 4
46 29 45
46 30 38
46 31 37
46 32 54
46 33 29
46 34 53
46 35 50
46 36 46
46 37 2
46 38 4
46 39 30
46 40 15
46 41 22
46 42 10
46 43 52
46 44 27
46 45 2
47 0 22
47 1 21
47 2 7
47 3 13
47 4 31
47 5 3
47 6 11
47 7 42
47 8 24
47 9 3
47 10 47
47 11 16
47 12 4
47 13 8
47 14 50
47 15 21
47 16 25
47 17 2
47 18 45
47 19 38
47 20 29
47 21 10
47 22 16
47 23 10
47 24 8
47 25 45
47 26 11
47 27 40
47 28 41
47 29 49
47 30 34
47 31 23
47 32 40
47 33 10
47 34 15
47 35 11
47 36 44
47 37 30
47 38 24
47 39 7
47 40 40
47 41 29
47 42 26
47 43 51
47 44 24
47 45 14
47 46 11
48 0 41
48 1 4
48 2 24
48 3 48
48 4 26
48 5 49
48 6 23
48 7 34
48 8 42
48 9 42
48 10 54
48 11 22
48 12 53
48 13 40
48 14 34
48 15 53
48 16 8
48 17 53
48 18 18
48 19 24
48 20 8
48 21 7
48 22 28
48 23 9
48 24 39
48 25 36
48 26 9
48 27 20
48 28 27
48 29 3
48 30 19
48 31 37
48 32 32
48 33 31
48 34 12
48 35 15
48 36 29
48 37 7
48 38 24
48 39 24
48 40 14
48 41 43
48 42 4
48 43 41
48 44 25
48 45 12
48 46 16
48 47 21
49 0 44
49 1 41
49 2 27
49 3 42
49 4 33
49 5 37
49 6 31
49 7 53
49 8 52
49 9 42
49 10 19
49 11 33
49 12 23
49 13 24
49 14 42
49 15 35
49 16 50
49 17 43
49 18 4
49 19 3
49 20 16
49 21 35
49 22 50
49 23 42
49 24 25
49 25 5
49 26 35
49 27 23
49 28 43
49 29 17
49 30 38
49 31 52
49 32 23
49 33 48
49 34 7
49 35 1
49 36 49
49 37 16
49 38 35
49 39 41
49 40 33
49 41 49
49 42 33
49 43 17
49 44 27
49 45 20
49 46 53
49 47 24
49 48 15
50 0 7
50 1 54
50 2 31
50 3 52
50 4 41
50 5 20
50 6 34
50 7 37
50 8 7
50 9 49
50 10 18
50 11 49
50 12 33
50 13 11
50 14 37
50 15 25
50 16 44
50 17 28
50 18 5
50 19 9
50 20 48
50 21 4
50 22 52
50 23 53
50 24 42
50 25 32
50 26 5
50 27 46
50 28 22
50 29 28
50 30 1
50 31 31
50 32 45
50 33 20
50 34 9
50 35 33
50 36 9
50 37 6
50 38 24
50 39 36
50 40 26
50 41 37
50 42 35
50 43 5
50 44 40
50 45 44
50 46 46
50 47 45
50 48 18
50 49 48
51 0 30
51 1 21
51 2 4
51 3 28
51 4 22
51 5 44
51 6 23
51 7 2
51 8 32
51 9 50
51 10 23
51 11 5
51 12 23
51 13 14
51 14 40
51 15 52
51 16 29
51 17 12
51 18 29
51 19 25
51 20 37
51 21 37
51 22 19
51 23 24
51 24 23
51 25 1
51 26 51
51 27 10
51 28 37
51 29 2
51 30 50
51 31 18
51 32 11
51 33 27
51 34 38
51 35 6
51 36 33
51 37 20
51 38 47
51 39 49
51 40 6
51 41 33
51 42 8
51 43 32
51 44 23
51 45 16
51 46 36
51 47 54
51 48 22
51 49 32
51 50 54
52 0 34
52 1 19
52 2 28
52 3 5
52 4 19
52 5 2
52 6 42
52 7 30
52 8 37
52 9 42
52 10 1
52 11 21
52 12 51
52 13 30
52 14 15
52 15 18
52 16 23
52 17 24
52 18 25
52 19 25
52 20 20
52 21 1
52 22 9
52 23 34
52 24 5
52 25 48
52 26 11
52 27 2
52 28 8
52 29 54
52 30 28
52 31 36
52 32 42
52 33 29
52 34 27
52 35 42
52 36 17
52 37 40
52 38 46
52 39 29
52 40 21
52 41 41
52 42 19
52 43 20
52 44 41
52 45 22
52 46 26
52 47 42
52 48 28
52 49 30
52 50 27
52 51 31
53 0 42
53 1 18
53 2 21
53 3 48
53 4 52
53 5 26
53 6 6
53 7 19
53 8 32
53 9 31
53 10 41
53 11 13
53 12 7
53 13 49
53 14 34
53 15 38
53 16 53
53 17 13
53 18 14
53 19 2
53 20 8
53 21 36
53 22 12
53 23 47
53 24 45
53 25 19
53 26 48
53 27 39
53 28 52
53 29 2
53 30 26
53 31 5
53 32 44
53 33 17
53 34 26
53 35 19
53 36 42
53 37 4
53 38 39
53 39 39
53 40 1
53 41 50
53 42 3
53 43 25
53 44 46
53 45 15
53 46 23
53 47 50
53 48 42
53 49 9
53 50 27
53 51 49
53 52 33
54 0 31
54 1 22
54 2 42
54 3 14
54 4 16
54 5 12
54 6 6
54 7 46
54 8 44
54 9 4
54 10 48
54 11 23
54 12 47
54 13 13
54 14 21
54 15 25
54 16 18
54 17 24
54 18 24
54 19 37
54 20 54
54 21 10
54 22 36
54 23 13
54 24 6
54 25 9
54 26 43
54 27 50
54 28 35
54 29 32
54 30 11
54 31 11
54 32 8
54 33 20
54 34 21
54 35 12
54 36 4
54 37 15
54 38 43
54 39 48
54 40 16
54 41 32
54 42 21
54 43 49
54 44 10
54 45 53
54 46 49
54 47 14
54 48 12
54 49 16
54 50 26
54 51 25
54 52 18
54 53 53
55 0 18
55 1 36
55 2 4
55 3 40
55 4 25
55 5 30
55 6 44
55 7 10
55 8 43
55 9 13
55 10 3
55 11 16
55 12 54
55 13 54
55 14 45
55 15 52
55 16 2
55 17 20
55 18 42
55 19 3
55 20 8
55 21 50
55 22 13
55 23 31
55 24 45
55 25 43
55 26 32
55 27 5
55 28 3
55 29 43
55 30 34
55 31 19
55 32 32
55 33 34
55 34 32
55 35 44
55 36 26
55 37 33
55 38 18
55 39 23
55 40 43
55 41 49
55 42 36
55 43 3
55 44 20
55 45 54
55 46 38
55 47 13
55 48 52
55 49 14
55 50 8
55 51 13
55 52 16
55 53 28
55 54 16
56 0 30
56 1 35
56 2 5
56 3 34
56 4 18
56 5 6
56 6 44
56 7 16
56 8 20
56 9 43
56 10 41
56 11 17
56 12 42
56 13 13
56 14 53
56 15 52
56 16 10
56 17 10
56 18 16
56 19 21
56 20 16
56 21 13
56 22 43
56 23 14
56 24 13
56 25 13
56 26 8
56 27 13
56 28 37
56 29 8
56 30 8
56 31 25
56 32 5
56 33 50
56 34 31
56 35 24
56 36 16
56 37 47
56 38 17
56 39 51
56 40 12
56 41 53
56 42 49
56 43 36
56 44 43
56 45 31
56 46 27
56 47 2
56 48 51
56 49 15
56 50 24
56 51 21
56 52 26
56 53 53
56 54 11
56 55 3
57 0 13
57 1 26
57 2 20
57 3 25
57 4 37
57 5 36
57 6 41
57 7 12
57 8 54
57 9 47
57 10 8
57 11 31
57 12 5
57 13 21
57 14 44
57 15 52
57 16 17
57 17 26
57 18 7
57 19 23
57 20 48
57 21 13
57 22 52
57 23 4
57 24 49
57 25 15
57 26 22
57 27 54
57 28 46
57 29 53
57 30 11
57 31 9
57 32 40
57 33 43
57 34 51
57 35 18
57 36 24
57 37 4
57 38 42
57 39 51
57 40 46
57 41 45
57 42 12
57 43 28
57 44 35
57 45 4
57 46 32
57 47 54
57 48 13
57 49 20
57 50 39
57 51 12
57 52 46
57 53 28
57 54 8
57 55 12
57 56 53
58 0 44
58 1 9
58 2 15
58 3 28
58 4 13
58 5 5
58 6 39
58 7 25
58 8 23
58 9 39
58 10 52
58 11 52
58 12 16
58 13 6
58 14 26
58 15 50
58 16 45
58 17 38
58 18 17
58 19 42
58 20 10
58 21 36
58 22 31
58 23 45
58 24 5
58 25 14
58 26 2
58 27 23
58 28 35
58 29 49
58 30 46
58 31 44
58 32 26
58 33 45
58 34 31
58 35 27
58 36 51
58 37 22
58 38 23
58 39 22
58 40 6
58 41 17
58 42 34
58 43 8
58 44 30
58 45 15
58 46 33
58 47 15
58 48 9
58 49 3
58 50 54
58 51 9
58 52 21
58 53 49
58 54 25
58 55 13
58 56 48
58 57 36
59 0 44
59 1 11
59 2 24
59 3 7
59 4 3
59 5 47
59 6 19
59 7 27
59 8 1
59 9 37
59 10 49
59 11 3
59 12 7
59 13 45
59 14 41
59 15 7
59 16 14
59 17 46
59 18 48
59 19 18
59 20 33
59 21 40
59 22 45
59 23 18
59 24 9
59 25 26
59 26 18
59 27 53
59 28 22
59 29 49
59 30 24
59 31 8
59 32 49
59 33 42
59 34 42
59 35 44
59 36 9
59 37 24
59 38 26
59 39 23
59 40 4
59 41 52
59 42 10
59 43 15
59 44 16
59 45 20
59 46 49
59 47 27
59 48 2
59 49 45
59 50 34
59 51 51
59 52 42
59 53 3
59 54 5
59 55 13
59 56 29
59 57 15
59 58 6
60 0 25
60 1 28
60 2 33
60 3 17
60 4 19
60 5 35
60 6 36
60 7 8
60 8 4
60 9 20
60 10 34
60 11 27
60 12 54
60 13 3
60 14 9
60 15 30
60 16 38
60 17 30
60 18 52
60 19 16
60 20 32
60 21 47
60 22 49
60 23 2
60 24 24
60 25 53
60 26 41
60 27 3
60 28 4
60 29 23
60 30 9
60 31 43
60 32 44
60 33 46
60 34 27
60 35 27
60 36 15
60 37 48
60 38 22
60 39 7
60 40 12
60 41 6
60 42 24
60 43 7
60 44 39
60 45 38
60 46 7
60 47 3
60 48 21
60 49 16
60 50 53
60 51 17
60 52 28
60 53 49
60 54 46
60 55 39
60 56 47
60 57 11
60 58 16
60 59 9
61 0 46
61 1 18
61 2 42
61 3 2
61 4 22
61 5 51
61 6 8
61 7 53
61 8 21
61 9 27
61 10 30
61 11 3
61 12 39
61 13 38
61 14 44
61 15 37
61 16 18
61 17 34
61 18 41
61 19 30
61 20 45
61 21 4
61 22 10
61 23 37
61 24 19
61 25 8
61 26 27
61 27 14
61 28 47
61 29 1
61 30 4
61 31 40
61 32 15
61 33 22
61 34 41
61 35 28
61 36 33
61 37 18
61 38 28
61 39 13
61 40 34
61 41 53
61 42 39
61 43 21
61 44 13
61 45 49
61 46 31
61 47 31
61 48 42
61 49 51
61 50 54
61 51 10
61 52 53
61 53 15
61 54 43
61 55 44
61 56 7
61 57 49
61 58 43
61 59 38
61 60 50
62 0 8
62 1 21
62 2 26
62 3 43
62 4 4
62 5 47
62 6 29
62 7 43
62 8 5
62 9 6
62 10 45
62 11 21
62 12 47
62 13 36
62 14 17
62 15 42
62 16 18
62 17 30
62 18 51
62 19 15
62 20 38
62 21 50
62 22 1
62 23 19
62 24 31
62 25 28
62 26 24
62 27 49
62 28 20
62 29 40
62 30 2
62 31 14
62 32 1
62 33 34
62 34 3
62 35 35
62 36 24
62 37 1
62 38 27
62 39 17
62 40 20
62 41 46
62 42 46
62 43 35
62 44 19
62 45 11
62 46 19
62 47 29
62 48 3
62 49 33
62 50 7
62 51 19
62 52 28
62 53 40
62 54 26
62 55 52
62 56 25
62 57 32
62 58 9
62 59 44
62 60 7
62 61 29
63 0 45
63 1 46
63 2 14
63 3 5
63 4 32
63 5 46
63 6 52
63 7 11
63 8 27
63 9 34
63 10 49
63 11 13
63 12 25
63 13 50
63 14 43
63 15 20
63 16 39
63 17 5
63 18 9
63 19 32
63 20 9
63 21 42
63 22 1
63 23 44
63 24 50
63 25 23
63 26 43
63 27 41
63 28 50
63 29 2
63 30 37
63 31 29
63 32 37
63 33 32
63 34 13
63 35 12
63 36 11
63 37 16
63 38 46
63 39 34
63 40 43
63 41 14
63 42 30
63 43 17
63 44 28
63 45 18
63 46 14
63 47 19
63 48 1
63 49 17
63 50 12
63 51 25
63 52 20
63 53 41
63 54 22
63 55 38
63 56 8
63 57 52
63 58 18
63 59 19
63 60 31
63 61 46
63 62 2
